p edge 95 1552
e 1 3
e 1 4
e 1 7
e 1 10
e 1 11
e 1 20
e 1 25
e 1 29
e 1 35
e 1 47
e 1 51
e 1 55
e 1 56
e 1 58
e 1 60
e 1 67
e 1 70
e 1 73
e 1 74
e 1 77
e 1 82
e 1 84
e 2 3
e 2 4
e 2 8
e 2 10
e 2 11
e 2 12
e 2 15
e 2 16
e 2 21
e 2 23
e 2 24
e 2 26
e 2 27
e 2 31
e 2 36
e 2 38
e 2 44
e 2 50
e 2 52
e 2 53
e 2 59
e 2 66
e 2 69
e 2 75
e 2 76
e 2 77
e 2 84
e 2 91
e 2 94
e 2 95
e 3 8
e 3 16
e 3 17
e 3 19
e 3 25
e 3 28
e 3 30
e 3 33
e 3 35
e 3 39
e 3 40
e 3 43
e 3 45
e 3 52
e 3 55
e 3 60
e 3 61
e 3 62
e 3 69
e 3 76
e 3 77
e 3 78
e 3 79
e 3 80
e 3 81
e 3 83
e 3 84
e 3 90
e 3 91
e 3 92
e 3 93
e 4 5
e 4 6
e 4 11
e 4 14
e 4 15
e 4 18
e 4 20
e 4 23
e 4 24
e 4 26
e 4 31
e 4 33
e 4 40
e 4 42
e 4 46
e 4 48
e 4 49
e 4 50
e 4 57
e 4 58
e 4 64
e 4 66
e 4 68
e 4 69
e 4 74
e 4 75
e 4 84
e 4 91
e 4 95
e 5 6
e 5 8
e 5 9
e 5 11
e 5 12
e 5 13
e 5 15
e 5 18
e 5 21
e 5 26
e 5 29
e 5 31
e 5 38
e 5 39
e 5 41
e 5 42
e 5 44
e 5 52
e 5 54
e 5 56
e 5 58
e 5 66
e 5 74
e 5 75
e 5 80
e 5 85
e 5 90
e 5 92
e 6 8
e 6 9
e 6 10
e 6 12
e 6 17
e 6 18
e 6 24
e 6 27
e 6 29
e 6 30
e 6 31
e 6 32
e 6 33
e 6 35
e 6 37
e 6 38
e 6 45
e 6 47
e 6 54
e 6 67
e 6 69
e 6 70
e 6 72
e 6 74
e 6 79
e 6 80
e 6 87
e 6 89
e 6 90
e 6 91
e 6 93
e 7 8
e 7 14
e 7 15
e 7 16
e 7 17
e 7 18
e 7 19
e 7 24
e 7 26
e 7 27
e 7 28
e 7 29
e 7 30
e 7 34
e 7 40
e 7 46
e 7 47
e 7 48
e 7 50
e 7 53
e 7 56
e 7 57
e 7 58
e 7 60
e 7 63
e 7 64
e 7 65
e 7 66
e 7 72
e 7 83
e 7 84
e 7 89
e 7 90
e 7 95
e 8 11
e 8 16
e 8 18
e 8 20
e 8 22
e 8 26
e 8 27
e 8 32
e 8 33
e 8 38
e 8 46
e 8 47
e 8 48
e 8 50
e 8 52
e 8 54
e 8 59
e 8 79
e 8 85
e 8 86
e 8 89
e 8 92
e 8 93
e 8 95
e 9 10
e 9 13
e 9 16
e 9 17
e 9 19
e 9 21
e 9 27
e 9 28
e 9 29
e 9 30
e 9 31
e 9 35
e 9 36
e 9 38
e 9 42
e 9 50
e 9 52
e 9 53
e 9 56
e 9 58
e 9 60
e 9 63
e 9 64
e 9 65
e 9 67
e 9 68
e 9 76
e 9 78
e 9 80
e 9 86
e 9 87
e 9 89
e 9 91
e 9 94
e 9 95
e 10 16
e 10 18
e 10 23
e 10 24
e 10 27
e 10 30
e 10 32
e 10 33
e 10 38
e 10 40
e 10 41
e 10 42
e 10 43
e 10 45
e 10 48
e 10 49
e 10 51
e 10 52
e 10 55
e 10 57
e 10 58
e 10 65
e 10 71
e 10 73
e 10 76
e 10 78
e 10 79
e 10 87
e 10 89
e 10 92
e 10 93
e 10 95
e 11 12
e 11 14
e 11 15
e 11 16
e 11 18
e 11 21
e 11 25
e 11 27
e 11 30
e 11 34
e 11 38
e 11 42
e 11 43
e 11 46
e 11 55
e 11 73
e 11 76
e 11 81
e 11 82
e 11 84
e 11 85
e 11 86
e 11 89
e 11 92
e 11 93
e 11 95
e 12 13
e 12 18
e 12 26
e 12 27
e 12 29
e 12 32
e 12 33
e 12 34
e 12 39
e 12 40
e 12 44
e 12 46
e 12 47
e 12 48
e 12 50
e 12 53
e 12 55
e 12 63
e 12 65
e 12 66
e 12 67
e 12 68
e 12 70
e 12 73
e 12 76
e 12 78
e 12 79
e 12 80
e 12 81
e 12 83
e 12 84
e 12 86
e 12 94
e 12 95
e 13 16
e 13 17
e 13 26
e 13 32
e 13 37
e 13 39
e 13 48
e 13 50
e 13 51
e 13 59
e 13 69
e 13 71
e 13 72
e 13 74
e 13 77
e 13 80
e 13 82
e 13 83
e 13 85
e 13 88
e 13 92
e 13 94
e 14 16
e 14 17
e 14 21
e 14 27
e 14 29
e 14 37
e 14 38
e 14 39
e 14 40
e 14 42
e 14 46
e 14 48
e 14 50
e 14 55
e 14 56
e 14 57
e 14 60
e 14 62
e 14 63
e 14 64
e 14 65
e 14 67
e 14 68
e 14 69
e 14 72
e 14 84
e 14 89
e 14 90
e 14 91
e 14 92
e 14 94
e 15 22
e 15 24
e 15 26
e 15 27
e 15 29
e 15 30
e 15 33
e 15 34
e 15 35
e 15 41
e 15 45
e 15 46
e 15 50
e 15 55
e 15 59
e 15 62
e 15 64
e 15 65
e 15 66
e 15 67
e 15 68
e 15 70
e 15 75
e 15 76
e 15 78
e 15 79
e 15 82
e 15 84
e 15 86
e 15 87
e 15 91
e 15 92
e 15 95
e 16 17
e 16 18
e 16 19
e 16 22
e 16 23
e 16 24
e 16 29
e 16 30
e 16 32
e 16 33
e 16 34
e 16 35
e 16 37
e 16 38
e 16 40
e 16 41
e 16 45
e 16 57
e 16 58
e 16 59
e 16 60
e 16 62
e 16 65
e 16 68
e 16 71
e 16 73
e 16 85
e 16 86
e 16 91
e 17 20
e 17 24
e 17 29
e 17 30
e 17 31
e 17 32
e 17 35
e 17 39
e 17 40
e 17 42
e 17 44
e 17 48
e 17 55
e 17 61
e 17 63
e 17 68
e 17 69
e 17 72
e 17 73
e 17 75
e 17 88
e 17 90
e 17 93
e 17 95
e 18 20
e 18 21
e 18 24
e 18 25
e 18 27
e 18 30
e 18 32
e 18 33
e 18 38
e 18 43
e 18 50
e 18 54
e 18 57
e 18 59
e 18 61
e 18 62
e 18 69
e 18 74
e 18 76
e 18 85
e 18 86
e 18 92
e 19 22
e 19 26
e 19 31
e 19 33
e 19 37
e 19 38
e 19 39
e 19 47
e 19 51
e 19 52
e 19 55
e 19 56
e 19 57
e 19 58
e 19 63
e 19 64
e 19 70
e 19 73
e 19 74
e 19 75
e 19 79
e 19 88
e 19 91
e 19 92
e 19 94
e 20 24
e 20 29
e 20 31
e 20 32
e 20 34
e 20 35
e 20 37
e 20 38
e 20 39
e 20 40
e 20 43
e 20 45
e 20 47
e 20 48
e 20 50
e 20 52
e 20 58
e 20 63
e 20 68
e 20 70
e 20 75
e 20 76
e 20 82
e 20 85
e 20 86
e 20 87
e 20 88
e 20 89
e 20 91
e 20 93
e 20 94
e 21 23
e 21 24
e 21 25
e 21 27
e 21 33
e 21 41
e 21 42
e 21 43
e 21 46
e 21 49
e 21 55
e 21 56
e 21 57
e 21 61
e 21 63
e 21 66
e 21 67
e 21 74
e 21 75
e 21 77
e 21 78
e 21 79
e 21 83
e 21 85
e 21 87
e 21 88
e 21 90
e 21 91
e 21 92
e 22 23
e 22 26
e 22 28
e 22 36
e 22 47
e 22 51
e 22 54
e 22 57
e 22 59
e 22 60
e 22 67
e 22 68
e 22 77
e 22 84
e 22 88
e 22 89
e 22 94
e 22 95
e 23 24
e 23 26
e 23 37
e 23 39
e 23 40
e 23 43
e 23 47
e 23 53
e 23 54
e 23 66
e 23 69
e 23 71
e 23 72
e 23 73
e 23 74
e 23 76
e 23 77
e 23 78
e 23 80
e 23 81
e 23 84
e 23 87
e 23 89
e 23 91
e 23 92
e 23 93
e 23 95
e 24 26
e 24 28
e 24 34
e 24 35
e 24 37
e 24 38
e 24 40
e 24 41
e 24 43
e 24 51
e 24 53
e 24 58
e 24 61
e 24 65
e 24 69
e 24 70
e 24 71
e 24 79
e 24 87
e 24 92
e 25 26
e 25 31
e 25 32
e 25 33
e 25 34
e 25 37
e 25 40
e 25 43
e 25 44
e 25 45
e 25 47
e 25 48
e 25 51
e 25 52
e 25 56
e 25 58
e 25 63
e 25 64
e 25 66
e 25 69
e 25 70
e 25 71
e 25 72
e 25 73
e 25 74
e 25 76
e 25 78
e 25 80
e 25 81
e 25 86
e 25 87
e 25 89
e 25 90
e 25 95
e 26 31
e 26 47
e 26 48
e 26 49
e 26 55
e 26 56
e 26 58
e 26 59
e 26 61
e 26 63
e 26 70
e 26 75
e 26 78
e 26 80
e 26 81
e 26 85
e 26 87
e 26 88
e 26 93
e 26 95
e 27 38
e 27 40
e 27 43
e 27 44
e 27 46
e 27 47
e 27 48
e 27 49
e 27 50
e 27 54
e 27 55
e 27 59
e 27 61
e 27 63
e 27 65
e 27 70
e 27 71
e 27 73
e 27 74
e 27 75
e 27 76
e 27 79
e 27 80
e 27 84
e 27 85
e 27 88
e 27 90
e 27 92
e 27 93
e 28 33
e 28 34
e 28 39
e 28 40
e 28 41
e 28 42
e 28 47
e 28 48
e 28 53
e 28 58
e 28 60
e 28 62
e 28 70
e 28 71
e 28 75
e 28 78
e 28 81
e 28 83
e 28 86
e 28 92
e 28 93
e 28 94
e 29 30
e 29 32
e 29 33
e 29 37
e 29 38
e 29 41
e 29 44
e 29 56
e 29 61
e 29 68
e 29 75
e 29 76
e 29 77
e 29 78
e 29 82
e 29 87
e 29 92
e 29 94
e 30 32
e 30 33
e 30 34
e 30 36
e 30 38
e 30 44
e 30 48
e 30 49
e 30 52
e 30 55
e 30 56
e 30 62
e 30 64
e 30 67
e 30 68
e 30 76
e 30 83
e 30 84
e 30 94
e 31 33
e 31 35
e 31 37
e 31 38
e 31 42
e 31 45
e 31 47
e 31 48
e 31 49
e 31 51
e 31 52
e 31 53
e 31 54
e 31 56
e 31 59
e 31 60
e 31 61
e 31 66
e 31 68
e 31 69
e 31 73
e 31 74
e 31 77
e 31 78
e 31 80
e 31 83
e 31 87
e 31 90
e 31 94
e 31 95
e 32 33
e 32 34
e 32 36
e 32 37
e 32 39
e 32 44
e 32 47
e 32 52
e 32 56
e 32 57
e 32 58
e 32 62
e 32 64
e 32 65
e 32 68
e 32 70
e 32 71
e 32 73
e 32 75
e 32 78
e 32 79
e 32 81
e 32 90
e 32 95
e 33 36
e 33 39
e 33 43
e 33 44
e 33 47
e 33 49
e 33 50
e 33 55
e 33 58
e 33 60
e 33 61
e 33 66
e 33 71
e 33 72
e 33 76
e 33 78
e 33 82
e 33 88
e 33 89
e 33 92
e 33 93
e 33 94
e 33 95
e 34 38
e 34 39
e 34 40
e 34 41
e 34 45
e 34 46
e 34 48
e 34 52
e 34 53
e 34 55
e 34 58
e 34 59
e 34 60
e 34 61
e 34 64
e 34 67
e 34 69
e 34 70
e 34 72
e 34 73
e 34 74
e 34 76
e 34 84
e 34 86
e 34 88
e 34 89
e 34 92
e 35 36
e 35 37
e 35 44
e 35 45
e 35 46
e 35 51
e 35 54
e 35 58
e 35 61
e 35 62
e 35 66
e 35 69
e 35 71
e 35 72
e 35 76
e 35 77
e 35 79
e 35 81
e 35 82
e 35 86
e 35 87
e 35 89
e 35 90
e 35 92
e 35 94
e 35 95
e 36 38
e 36 39
e 36 42
e 36 44
e 36 45
e 36 46
e 36 51
e 36 52
e 36 54
e 36 56
e 36 58
e 36 59
e 36 62
e 36 69
e 36 71
e 36 73
e 36 77
e 36 78
e 36 81
e 36 82
e 36 85
e 36 88
e 36 89
e 36 90
e 36 93
e 36 94
e 37 40
e 37 44
e 37 47
e 37 49
e 37 50
e 37 53
e 37 56
e 37 57
e 37 60
e 37 67
e 37 68
e 37 72
e 37 77
e 37 83
e 37 85
e 37 86
e 37 91
e 37 95
e 38 39
e 38 41
e 38 42
e 38 43
e 38 53
e 38 56
e 38 57
e 38 60
e 38 61
e 38 63
e 38 73
e 38 76
e 38 78
e 38 79
e 38 81
e 38 82
e 38 87
e 38 90
e 38 93
e 38 94
e 39 40
e 39 44
e 39 47
e 39 48
e 39 49
e 39 55
e 39 56
e 39 58
e 39 61
e 39 70
e 39 81
e 39 82
e 39 83
e 39 86
e 39 90
e 40 42
e 40 44
e 40 47
e 40 49
e 40 53
e 40 57
e 40 59
e 40 65
e 40 68
e 40 69
e 40 70
e 40 75
e 40 78
e 40 80
e 40 85
e 40 86
e 40 89
e 40 93
e 41 42
e 41 45
e 41 46
e 41 48
e 41 49
e 41 51
e 41 53
e 41 56
e 41 58
e 41 67
e 41 68
e 41 69
e 41 70
e 41 71
e 41 77
e 41 78
e 41 79
e 41 82
e 41 83
e 41 85
e 41 87
e 41 91
e 41 94
e 42 44
e 42 45
e 42 51
e 42 55
e 42 58
e 42 61
e 42 62
e 42 64
e 42 65
e 42 67
e 42 71
e 42 72
e 42 74
e 42 75
e 42 77
e 42 80
e 42 83
e 42 84
e 42 86
e 42 88
e 42 90
e 42 94
e 43 51
e 43 53
e 43 54
e 43 57
e 43 58
e 43 59
e 43 62
e 43 65
e 43 68
e 43 69
e 43 74
e 43 76
e 43 78
e 43 80
e 43 82
e 43 86
e 43 87
e 43 90
e 43 91
e 44 47
e 44 52
e 44 60
e 44 64
e 44 66
e 44 67
e 44 68
e 44 75
e 44 79
e 44 85
e 44 87
e 44 93
e 45 48
e 45 54
e 45 57
e 45 59
e 45 61
e 45 62
e 45 66
e 45 67
e 45 74
e 45 77
e 45 80
e 45 85
e 45 87
e 45 89
e 45 90
e 45 92
e 46 48
e 46 49
e 46 50
e 46 55
e 46 57
e 46 59
e 46 61
e 46 70
e 46 72
e 46 74
e 46 77
e 46 78
e 46 82
e 46 83
e 46 86
e 46 87
e 46 88
e 46 89
e 46 93
e 47 48
e 47 53
e 47 55
e 47 56
e 47 63
e 47 64
e 47 69
e 47 70
e 47 72
e 47 80
e 47 82
e 47 84
e 47 86
e 47 89
e 47 92
e 48 52
e 48 55
e 48 57
e 48 59
e 48 60
e 48 62
e 48 65
e 48 67
e 48 77
e 48 79
e 48 88
e 48 89
e 49 51
e 49 57
e 49 61
e 49 63
e 49 64
e 49 74
e 49 75
e 49 77
e 49 80
e 49 81
e 49 86
e 49 87
e 49 88
e 49 90
e 49 92
e 50 54
e 50 61
e 50 65
e 50 70
e 50 73
e 50 81
e 50 82
e 50 83
e 50 84
e 50 86
e 50 87
e 50 89
e 50 92
e 51 52
e 51 55
e 51 62
e 51 65
e 51 67
e 51 68
e 51 71
e 51 72
e 51 73
e 51 75
e 51 76
e 51 79
e 51 80
e 51 82
e 51 83
e 51 84
e 51 85
e 51 87
e 51 88
e 51 93
e 51 94
e 51 95
e 52 54
e 52 59
e 52 60
e 52 68
e 52 69
e 52 71
e 52 74
e 52 83
e 52 84
e 52 91
e 52 93
e 53 56
e 53 62
e 53 63
e 53 65
e 53 73
e 53 77
e 53 79
e 53 81
e 53 86
e 54 55
e 54 56
e 54 57
e 54 60
e 54 62
e 54 63
e 54 65
e 54 67
e 54 79
e 54 81
e 54 83
e 54 91
e 54 92
e 54 93
e 54 95
e 55 56
e 55 58
e 55 63
e 55 75
e 55 77
e 55 80
e 55 81
e 55 88
e 55 92
e 55 94
e 56 57
e 56 58
e 56 60
e 56 64
e 56 65
e 56 66
e 56 68
e 56 71
e 56 74
e 56 75
e 56 76
e 56 78
e 56 79
e 56 83
e 56 87
e 56 89
e 56 90
e 56 94
e 56 95
e 57 60
e 57 69
e 57 70
e 57 71
e 57 72
e 57 74
e 57 75
e 57 77
e 57 81
e 57 83
e 57 90
e 57 94
e 58 59
e 58 61
e 58 62
e 58 64
e 58 65
e 58 67
e 58 70
e 58 78
e 58 79
e 58 82
e 58 84
e 58 85
e 58 87
e 59 62
e 59 63
e 59 64
e 59 66
e 59 68
e 59 71
e 59 72
e 59 73
e 59 75
e 59 76
e 59 79
e 59 80
e 59 81
e 59 84
e 59 85
e 59 88
e 59 89
e 59 91
e 59 92
e 60 62
e 60 64
e 60 66
e 60 67
e 60 70
e 60 71
e 60 73
e 60 82
e 60 87
e 60 88
e 60 93
e 60 95
e 61 62
e 61 67
e 61 68
e 61 69
e 61 72
e 61 76
e 61 82
e 61 85
e 61 88
e 61 89
e 61 93
e 61 95
e 62 64
e 62 67
e 62 74
e 62 76
e 62 80
e 62 81
e 62 82
e 62 89
e 62 92
e 63 64
e 63 66
e 63 67
e 63 69
e 63 70
e 63 71
e 63 72
e 63 75
e 63 77
e 63 78
e 63 80
e 63 84
e 63 86
e 63 92
e 63 94
e 63 95
e 64 70
e 64 75
e 64 77
e 64 79
e 64 80
e 64 86
e 64 88
e 64 89
e 64 90
e 64 93
e 64 95
e 65 67
e 65 71
e 65 73
e 65 74
e 65 77
e 65 78
e 65 79
e 65 83
e 65 84
e 65 85
e 65 87
e 65 89
e 66 72
e 66 73
e 66 74
e 66 75
e 66 80
e 66 82
e 66 85
e 66 86
e 66 87
e 66 88
e 66 90
e 66 92
e 66 93
e 67 70
e 67 75
e 67 78
e 67 79
e 67 84
e 67 87
e 67 89
e 67 91
e 67 94
e 68 69
e 68 73
e 68 76
e 68 81
e 68 82
e 68 86
e 68 90
e 68 91
e 68 95
e 69 73
e 69 76
e 69 80
e 69 81
e 69 82
e 69 83
e 69 85
e 69 86
e 69 88
e 69 94
e 70 72
e 70 79
e 70 80
e 70 85
e 70 86
e 70 93
e 71 72
e 71 73
e 71 75
e 71 80
e 71 81
e 71 83
e 71 85
e 71 89
e 71 93
e 72 75
e 72 79
e 72 81
e 72 84
e 72 86
e 72 90
e 72 92
e 72 93
e 72 95
e 73 75
e 73 76
e 73 77
e 73 78
e 73 80
e 73 81
e 73 82
e 73 87
e 73 92
e 74 75
e 74 76
e 74 79
e 74 81
e 74 83
e 74 84
e 74 88
e 74 92
e 75 80
e 75 85
e 75 91
e 75 94
e 75 95
e 76 77
e 76 82
e 76 83
e 76 87
e 76 89
e 76 92
e 76 93
e 77 80
e 77 82
e 77 83
e 77 87
e 77 88
e 77 89
e 77 93
e 77 94
e 78 84
e 78 86
e 78 87
e 78 92
e 78 95
e 79 84
e 79 86
e 79 94
e 80 84
e 80 89
e 80 90
e 80 92
e 81 82
e 81 88
e 81 90
e 81 94
e 82 87
e 82 90
e 82 93
e 83 87
e 83 88
e 83 91
e 83 93
e 83 94
e 84 85
e 84 87
e 84 90
e 85 88
e 85 90
e 86 89
e 86 90
e 86 91
e 87 90
e 87 92
e 87 93
e 88 89
e 88 94
e 88 95
e 89 92
e 89 95
e 90 91
e 90 94
e 90 95
e 91 95
e 92 94
e 92 95
